words_hard_train/3081.qaiger
aag 15 7 0 1 8
2
4
8
12
14
18
20
31
6 3 5
10 7 9
16 13 15
22 19 21
24 16 22
26 11 24
28 6 8
30 26 29
i0 1 x1[0]
i1 2 y2[0]
i2 1 x1[3]
i3 1 x1[7]
i4 1 x1[4]
i5 1 x1[6]
i6 1 x1[5]
o0 bool[0]
c
simplified
  !=
    >> 3
      1 x1
    and
      or
        2 y2
        1 x1
      1
