words_hard_train/3081.qaiger.qdimacs
p cnf 15 25
a 1 4 6 7 9 10 0
e 2 3 5 8 11 12 13 14 15 0
1 2 3 0
-1 -3 0
-2 -3 0
3 4 5 0
-3 -5 0
-4 -5 0
6 7 8 0
-6 -8 0
-7 -8 0
9 10 11 0
-9 -11 0
-10 -11 0
-8 -11 12 0
8 -12 0
11 -12 0
5 -12 13 0
-5 -13 0
12 -13 0
-3 -4 14 0
3 -14 0
4 -14 0
-13 14 15 0
13 -15 0
-14 -15 0
-15 0
